(set-logic QF_NIA)
(set-info :source |
     Constraint systems stating that a matrix interpretation is
     compatible with a rewriting system (weakly compatible with
     all rules, strictly compatible with at least one).

     Contributed by Johannes Waldmann at HTKW Leipzig.
   |)
(set-info :smt-lib-version 2.0)
(set-info :category "crafted")
(set-info :status sat)
(declare-fun n0 () Int)
(assert (>= n0 0))
(declare-fun n1 () Int)
(assert (>= n1 0))
(declare-fun n2 () Int)
(assert (>= n2 0))
(declare-fun n3 () Int)
(assert (>= n3 0))
(declare-fun n4 () Int)
(assert (>= n4 0))
(declare-fun n5 () Int)
(assert (>= n5 0))
(declare-fun n6 () Int)
(assert (>= n6 0))
(declare-fun n7 () Int)
(assert (>= n7 0))
(declare-fun n8 () Int)
(assert (>= n8 0))
(declare-fun n9 () Int)
(assert (>= n9 0))
(declare-fun n10 () Int)
(assert (>= n10 0))
(declare-fun n11 () Int)
(assert (>= n11 0))
(declare-fun n12 () Int)
(assert (= n12 (* n11 n6)))
(declare-fun n13 () Int)
(assert (= n13 (+ n10 n12)))
(declare-fun n14 () Int)
(assert (= n14 (* n11 n7)))
(declare-fun n15 () Int)
(assert (= n15 (* n11 n10)))
(declare-fun n16 () Int)
(assert (= n16 (+ n10 n15)))
(declare-fun n17 () Int)
(assert (= n17 (* n11 n11)))
(declare-fun n18 () Int)
(assert (= n18 (* n1 n8)))
(declare-fun n19 () Int)
(assert (= n19 (+ n0 n18)))
(declare-fun n20 () Int)
(assert (= n20 (* n1 n9)))
(declare-fun n21 () Int)
(assert (= n21 (* n9 n6)))
(declare-fun n22 () Int)
(assert (= n22 (+ n8 n21)))
(declare-fun n23 () Int)
(assert (= n23 (* n9 n7)))
(declare-fun n24 () Int)
(assert (= n24 (* n1 n13)))
(declare-fun n25 () Int)
(assert (= n25 (+ n0 n24)))
(declare-fun n26 () Int)
(assert (= n26 (* n1 n14)))
(assert (>= n19 n25))
(assert (>= n20 n26))
(assert (>= n19 n0))
(assert (>= n20 n1))
(declare-fun n27 () Int)
(assert (= n27 (* n5 n16)))
(declare-fun n28 () Int)
(assert (= n28 (+ n4 n27)))
(declare-fun n29 () Int)
(assert (= n29 (* n5 n17)))
(assert (>= n28 n2))
(assert (>= n29 n3))
(assert true)
(assert (>= n7 1))
(declare-fun n30 () Int)
(assert (= n30 (* n7 n8)))
(declare-fun n31 () Int)
(assert (= n31 (+ n6 n30)))
(declare-fun n32 () Int)
(assert (= n32 (* n7 n9)))
(declare-fun n33 () Int)
(assert (= n33 (* n23 n13)))
(declare-fun n34 () Int)
(assert (= n34 (+ n22 n33)))
(declare-fun n35 () Int)
(assert (= n35 (* n23 n14)))
(assert (>= n31 n34))
(assert (>= n32 n35))
(assert true)
(assert (>= n9 1))
(declare-fun n36 () Int)
(assert (= n36 (* n17 n10)))
(declare-fun n37 () Int)
(assert (= n37 (+ n16 n36)))
(declare-fun n38 () Int)
(assert (= n38 (* n17 n11)))
(assert (>= n37 n8))
(assert (>= n38 n9))
(assert (or (> n19 n25) (> n19 n0) (> n28 n2)))
(check-sat)
(exit)
